Route #1: 133 84 129 126 128 115 12 123 101
Route #2: 26 60 97 122 8 69 31 9 85 108 45 99 24 78 6 98 7 114
Route #3: 14 64 82 16 28 23 5 71 68 56 127 21 76 29 66 43 54 67 109 91 49
Route #4: 79 39 51 36 27 75 88 110
Route #5: 20 131 4 73 87 34 125 83 18
Route #6: 58 105 100 112 37 44 121 80 72
Route #7: 57 124 111 55 33 63 11 104
Route #8: 25 38 89 103 95 94 46 22 47 107 77
Route #9: 81 134 13 86 30 93 32 116
Route #10: 119 52 17 48 10 3 15 92
Route #11: 120 62 2 70 50 118 65 113
Route #12: 61 59 35 40 74 19 42 106
Route #13: 96 130 117 90 102 132 53 41
Cost 23997
